experiment/data/hgs-res/Vrp-Set-X-n233/Vrp-Set-X-n233-hgs/0.hgs1.vrp
NAME : 0
COMMENT : CVRP Instance
TYPE : CVRP
DIMENSION : 233
EDGE_WEIGHT_TYPE : EUC_2D
CAPACITY : 631
NODE_COORD_SECTION
1	500.0	500.0
2	816.0	981.0
3	349.0	338.0
4	22.0	205.0
5	385.0	344.0
6	913.0	54.0
7	524.0	123.0
8	239.0	335.0
9	150.0	84.0
10	84.0	860.0
11	645.0	647.0
12	507.0	516.0
13	153.0	940.0
14	429.0	602.0
15	596.0	759.0
16	776.0	399.0
17	942.0	767.0
18	871.0	2.0
19	714.0	950.0
20	72.0	400.0
21	765.0	315.0
22	666.0	798.0
23	287.0	851.0
24	3.0	201.0
25	78.0	724.0
26	896.0	240.0
27	59.0	735.0
28	253.0	251.0
29	37.0	22.0
30	973.0	599.0
31	726.0	13.0
32	82.0	262.0
33	2.0	631.0
34	133.0	656.0
35	435.0	741.0
36	834.0	714.0
37	37.0	861.0
38	946.0	211.0
39	290.0	110.0
40	423.0	350.0
41	406.0	414.0
42	804.0	581.0
43	846.0	956.0
44	849.0	683.0
45	79.0	883.0
46	433.0	93.0
47	610.0	253.0
48	686.0	486.0
49	229.0	248.0
50	382.0	597.0
51	544.0	618.0
52	585.0	303.0
53	732.0	387.0
54	533.0	952.0
55	563.0	807.0
56	780.0	940.0
57	665.0	561.0
58	591.0	536.0
59	35.0	216.0
60	577.0	969.0
61	811.0	927.0
62	592.0	744.0
63	280.0	384.0
64	866.0	228.0
65	153.0	27.0
66	401.0	481.0
67	72.0	488.0
68	610.0	324.0
69	381.0	300.0
70	209.0	675.0
71	139.0	848.0
72	354.0	124.0
73	386.0	572.0
74	36.0	764.0
75	660.0	422.0
76	719.0	264.0
77	761.0	560.0
78	231.0	203.0
79	769.0	312.0
80	905.0	645.0
81	304.0	372.0
82	970.0	966.0
83	51.0	257.0
84	189.0	934.0
85	516.0	6.0
86	756.0	36.0
87	47.0	139.0
88	428.0	61.0
89	100.0	853.0
90	923.0	919.0
91	751.0	480.0
92	555.0	726.0
93	463.0	190.0
94	130.0	131.0
95	105.0	943.0
96	83.0	892.0
97	215.0	690.0
98	869.0	706.0
99	512.0	831.0
100	603.0	287.0
101	668.0	913.0
102	954.0	694.0
103	321.0	587.0
104	282.0	907.0
105	339.0	810.0
106	30.0	659.0
107	339.0	296.0
108	367.0	511.0
109	448.0	223.0
110	72.0	181.0
111	323.0	183.0
112	684.0	125.0
113	415.0	387.0
114	882.0	359.0
115	485.0	115.0
116	133.0	541.0
117	368.0	424.0
118	585.0	302.0
119	991.0	97.0
120	198.0	817.0
121	634.0	849.0
122	142.0	639.0
123	455.0	777.0
124	436.0	774.0
125	245.0	581.0
126	112.0	691.0
127	665.0	246.0
128	37.0	450.0
129	436.0	843.0
130	899.0	115.0
131	983.0	90.0
132	461.0	866.0
133	429.0	752.0
134	696.0	466.0
135	629.0	807.0
136	506.0	293.0
137	11.0	521.0
138	50.0	515.0
139	109.0	570.0
140	677.0	876.0
141	171.0	930.0
142	919.0	111.0
143	425.0	775.0
144	470.0	783.0
145	129.0	852.0
146	504.0	181.0
147	439.0	799.0
148	919.0	181.0
149	469.0	826.0
150	390.0	729.0
151	83.0	649.0
152	469.0	662.0
153	161.0	759.0
154	656.0	281.0
155	90.0	681.0
156	563.0	555.0
157	399.0	828.0
158	155.0	612.0
159	213.0	837.0
160	280.0	680.0
161	473.0	689.0
162	153.0	586.0
163	273.0	698.0
164	191.0	650.0
165	645.0	830.0
166	484.0	821.0
167	384.0	375.0
168	65.0	890.0
169	137.0	561.0
170	432.0	780.0
171	561.0	523.0
172	390.0	934.0
173	481.0	236.0
174	725.0	818.0
175	272.0	710.0
176	998.0	76.0
177	544.0	282.0
178	866.0	252.0
179	358.0	678.0
180	439.0	687.0
181	470.0	303.0
182	636.0	804.0
183	461.0	690.0
184	912.0	114.0
185	406.0	829.0
186	372.0	683.0
187	446.0	812.0
188	378.0	754.0
189	412.0	780.0
190	637.0	870.0
191	953.0	185.0
192	541.0	254.0
193	498.0	856.0
194	535.0	304.0
195	652.0	948.0
196	318.0	654.0
197	117.0	832.0
198	648.0	144.0
199	410.0	863.0
200	371.0	627.0
201	634.0	872.0
202	308.0	649.0
203	235.0	979.0
204	271.0	865.0
205	115.0	761.0
206	553.0	750.0
207	723.0	813.0
208	405.0	889.0
209	570.0	761.0
210	114.0	660.0
211	159.0	883.0
212	460.0	699.0
213	185.0	559.0
214	472.0	799.0
215	320.0	641.0
216	508.0	754.0
217	294.0	874.0
218	265.0	793.0
219	999.0	125.0
220	999.0	75.0
221	662.0	727.0
222	464.0	770.0
223	724.0	174.0
224	603.0	260.0
225	530.0	286.0
226	383.0	845.0
227	814.0	812.0
228	96.0	554.0
229	605.0	284.0
230	134.0	625.0
231	568.0	454.0
232	220.0	931.0
233	162.0	792.0
DEMAND_SECTION
1	0
2	53
3	64
4	54
5	63
6	45
7	6
8	100
9	63
10	5
11	74
12	87
13	11
14	33
15	63
16	36
17	93
18	28
19	89
20	64
21	8
22	69
23	40
24	65
25	29
26	30
27	19
28	78
29	78
30	55
31	6
32	94
33	25
34	38
35	2
36	69
37	42
38	43
39	94
40	74
41	54
42	93
43	76
44	92
45	49
46	85
47	4
48	12
49	70
50	17
51	82
52	16
53	1
54	51
55	94
56	74
57	56
58	66
59	79
60	88
61	65
62	87
63	62
64	5
65	67
66	78
67	57
68	45
69	82
70	18
71	35
72	88
73	8
74	13
75	37
76	45
77	75
78	70
79	13
80	69
81	59
82	88
83	88
84	23
85	4
86	49
87	67
88	75
89	9
90	94
91	45
92	59
93	100
94	84
95	34
96	18
97	24
98	66
99	71
100	47
101	99
102	75
103	11
104	28
105	8
106	50
107	83
108	44
109	53
110	86
111	97
112	10
113	73
114	27
115	74
116	36
117	85
118	43
119	39
120	25
121	55
122	14
123	30
124	4
125	23
126	16
127	23
128	100
129	20
130	12
131	29
132	5
133	17
134	2
135	93
136	27
137	7
138	16
139	2
140	75
141	8
142	6
143	43
144	18
145	34
146	29
147	37
148	13
149	26
150	25
151	36
152	14
153	45
154	23
155	50
156	55
157	24
158	9
159	11
160	27
161	24
162	21
163	3
164	40
165	76
166	45
167	99
168	29
169	5
170	31
171	84
172	45
173	65
174	75
175	6
176	38
177	42
178	11
179	10
180	12
181	94
182	86
183	45
184	35
185	15
186	35
187	14
188	50
189	20
190	96
191	31
192	6
193	2
194	23
195	85
196	8
197	34
198	7
199	32
200	33
201	57
202	39
203	2
204	8
205	40
206	74
207	94
208	30
209	54
210	2
211	33
212	20
213	47
214	40
215	35
216	64
217	35
218	18
219	43
220	15
221	85
222	43
223	20
224	23
225	10
226	17
227	54
228	41
229	25
230	11
231	23
232	19
233	40
DEPOT_SECTION
1
-1
EOF
