experiment/data/hgs-res/Vrp-Set-X-n233/Vrp-Set-X-n233-hgs/0.hgs1.tour
Route #1: 124 168 115 138 227 136 137 66 127 19 7 62 80 40
Route #2: 48 109 86 23 3 58 82 31
Route #3: 65 116 2 106 68 4 166 112
Route #4: 27 77 93 8 28 64 38 110
Route #5: 172 108 92 71 45 87 84 114 6 145 191 224 193
Route #6: 230 74 52 15 20 78 75 126 46 223 228 99 67 51 117 176 135 180 39
Route #7: 47 133 90 113 177 63 25 147 37 190 218 118 219 175 130 141 183 129 5 17 85 30 111 197 222 153
Route #8: 43 97 16 101 29 79 41 76
Route #9: 56 35 226 89 81 42 1 60 55
Route #10: 170 57 10 220 61 14 208 91 155
Route #11: 21 206 173 139 189 200 164 181
Route #12: 11
Route #13: 215 192 131 53 59 194 18 100 120 134
Route #14: 151 160 182 211 221 122 143 213 148 165 98 54 205 50
Route #15: 72 49 199 214 201 195 178 185 187 188 184 156 225 171 207 198 128 186 146 169 123 142 132 34 179 13
Route #16: 149 104 22 203 216 103 202 231 83 140 12 94 95 44 167 36 9 88 196 144 70 210 158 119 217 174 162 159 102
Route #17: 107 212 161 157 229 121 33 209 125 154 150 32 105 73 26 24 204 232 152 96 69 163
Cost 19239.1
